
Gurobi 9.1.2 (linux64, gurobi_cl) logging started Tue Feb  8 23:20:47 2022

Academic license - for non-commercial use only - expires 2022-03-24
Using license file /home/user/gurobi.lic
Set parameter LogFile to value gurobi.log

Gurobi 9.1.2 (linux64, gurobi_cl) logging started Tue Feb  8 23:20:58 2022

Academic license - for non-commercial use only - expires 2022-03-24
Using license file /home/user/gurobi.lic
Set parameter LogFile to value gurobi.log

Gurobi 9.1.2 (linux64, gurobi_cl) logging started Tue Feb  8 23:21:53 2022

Academic license - for non-commercial use only - expires 2022-03-24
Using license file /home/user/gurobi.lic
Set parameter LogFile to value gurobi.log

Gurobi 9.1.2 (linux64, gurobi_cl) logging started Tue Feb  8 23:26:29 2022

Academic license - for non-commercial use only - expires 2022-03-24
Using license file /home/user/gurobi.lic
Set parameter LogFile to value gurobi.log

Gurobi 9.1.2 (linux64, gurobi_cl) logging started Tue Feb  8 23:26:54 2022

Academic license - for non-commercial use only - expires 2022-03-24
Using license file /home/user/gurobi.lic
Set parameter LogFile to value gurobi.log

Gurobi 9.1.2 (linux64, gurobi_cl) logging started Tue Feb  8 23:28:12 2022

Academic license - for non-commercial use only - expires 2022-03-24
Using license file /home/user/gurobi.lic
Set parameter LogFile to value gurobi.log

Gurobi 9.5.0 (linux64, gurobi_cl) logging started Wed Feb  9 09:30:49 2022

Set parameter Username
Set parameter LogFile to value "gurobi.log"

Gurobi 9.5.0 (linux64, gurobi_cl) logging started Wed Feb  9 09:52:02 2022

Set parameter Username
Set parameter LogFile to value "gurobi.log"

Gurobi 9.1.2 (linux64, gurobi_cl) logging started Mon Feb 14 16:01:52 2022

Academic license - for non-commercial use only - expires 2022-03-24
Using license file /home/user/gurobi.lic
Set parameter LogFile to value gurobi.log

Gurobi 9.1.2 (linux64, gurobi_cl) logging started Tue Mar 15 11:10:33 2022


--------------------------------------------
Warning: your license will expire in 9 days
--------------------------------------------

Academic license - for non-commercial use only - expires 2022-03-24
Using license file /home/user/gurobi.lic
Set parameter LogFile to value gurobi.log

Gurobi 9.1.2 (linux64, gurobi_cl) logging started Tue Mar 15 11:10:42 2022


--------------------------------------------
Warning: your license will expire in 9 days
--------------------------------------------

Academic license - for non-commercial use only - expires 2022-03-24
Using license file /home/user/gurobi.lic
Set parameter LogFile to value gurobi.log

Gurobi 9.1.2 (linux64, gurobi_cl) logging started Tue Mar 15 11:11:07 2022


--------------------------------------------
Warning: your license will expire in 9 days
--------------------------------------------

Academic license - for non-commercial use only - expires 2022-03-24
Using license file /home/user/gurobi.lic
Set parameter LogFile to value gurobi.log

Gurobi 9.1.2 (linux64, gurobi_cl) logging started Tue Mar 15 11:12:01 2022


--------------------------------------------
Warning: your license will expire in 9 days
--------------------------------------------

Academic license - for non-commercial use only - expires 2022-03-24
Using license file /home/user/gurobi.lic
Set parameter LogFile to value gurobi.log

Gurobi 9.1.2 (linux64, gurobi_cl) logging started Tue Mar 15 11:12:10 2022


--------------------------------------------
Warning: your license will expire in 9 days
--------------------------------------------

Academic license - for non-commercial use only - expires 2022-03-24
Using license file /home/user/gurobi.lic
Set parameter LogFile to value gurobi.log

Gurobi 9.1.2 (linux64, gurobi_cl) logging started Tue Mar 15 11:23:08 2022


--------------------------------------------
Warning: your license will expire in 9 days
--------------------------------------------

Academic license - for non-commercial use only - expires 2022-03-24
Using license file /home/user/gurobi.lic
Set parameter LogFile to value gurobi.log

Gurobi 9.1.2 (linux64, gurobi_cl) logging started Tue Mar 15 11:24:04 2022


--------------------------------------------
Warning: your license will expire in 9 days
--------------------------------------------

Academic license - for non-commercial use only - expires 2022-03-24
Using license file /home/user/gurobi.lic
Set parameter LogFile to value gurobi.log

Gurobi 9.1.2 (linux64, gurobi_cl) logging started Tue Mar 15 11:25:01 2022


--------------------------------------------
Warning: your license will expire in 9 days
--------------------------------------------

Academic license - for non-commercial use only - expires 2022-03-24
Using license file /home/user/gurobi.lic
Set parameter LogFile to value gurobi.log

Gurobi 9.1.2 (linux64, gurobi_cl) logging started Tue Mar 15 11:26:31 2022


--------------------------------------------
Warning: your license will expire in 9 days
--------------------------------------------

Academic license - for non-commercial use only - expires 2022-03-24
Using license file /home/user/gurobi.lic
Set parameter LogFile to value gurobi.log

Gurobi 9.1.2 (linux64, gurobi_cl) logging started Tue Mar 15 11:26:40 2022


--------------------------------------------
Warning: your license will expire in 9 days
--------------------------------------------

Academic license - for non-commercial use only - expires 2022-03-24
Using license file /home/user/gurobi.lic
Set parameter LogFile to value gurobi.log

Gurobi 9.1.2 (linux64, gurobi_cl) logging started Tue Mar 15 11:47:57 2022


--------------------------------------------
Warning: your license will expire in 9 days
--------------------------------------------

Academic license - for non-commercial use only - expires 2022-03-24
Using license file /home/user/gurobi.lic
Set parameter LogFile to value gurobi.log

Gurobi 9.1.2 (linux64, gurobi_cl) logging started Tue Mar 15 11:48:39 2022


--------------------------------------------
Warning: your license will expire in 9 days
--------------------------------------------

Academic license - for non-commercial use only - expires 2022-03-24
Using license file /home/user/gurobi.lic
Set parameter LogFile to value gurobi.log

Gurobi 9.1.2 (linux64, gurobi_cl) logging started Tue Mar 15 11:50:25 2022


--------------------------------------------
Warning: your license will expire in 9 days
--------------------------------------------

Academic license - for non-commercial use only - expires 2022-03-24
Using license file /home/user/gurobi.lic
Set parameter LogFile to value gurobi.log

Gurobi 9.1.2 (linux64, gurobi_cl) logging started Tue Mar 15 11:51:35 2022


--------------------------------------------
Warning: your license will expire in 9 days
--------------------------------------------

Academic license - for non-commercial use only - expires 2022-03-24
Using license file /home/user/gurobi.lic
Set parameter LogFile to value gurobi.log

Gurobi 9.1.2 (linux64, gurobi_cl) logging started Tue Mar 15 11:51:39 2022


--------------------------------------------
Warning: your license will expire in 9 days
--------------------------------------------

Academic license - for non-commercial use only - expires 2022-03-24
Using license file /home/user/gurobi.lic
Set parameter LogFile to value gurobi.log

Gurobi 9.1.2 (linux64, gurobi_cl) logging started Tue Mar 15 11:51:55 2022


--------------------------------------------
Warning: your license will expire in 9 days
--------------------------------------------

Academic license - for non-commercial use only - expires 2022-03-24
Using license file /home/user/gurobi.lic
Set parameter LogFile to value gurobi.log

Gurobi 9.1.2 (linux64, gurobi_cl) logging started Tue Mar 15 11:52:25 2022


--------------------------------------------
Warning: your license will expire in 9 days
--------------------------------------------

Academic license - for non-commercial use only - expires 2022-03-24
Using license file /home/user/gurobi.lic
Set parameter LogFile to value gurobi.log

Gurobi 9.1.2 (linux64, gurobi_cl) logging started Tue Mar 15 11:52:58 2022


--------------------------------------------
Warning: your license will expire in 9 days
--------------------------------------------

Academic license - for non-commercial use only - expires 2022-03-24
Using license file /home/user/gurobi.lic
Set parameter LogFile to value gurobi.log

Gurobi 9.1.2 (linux64, gurobi_cl) logging started Tue Mar 15 11:53:06 2022


--------------------------------------------
Warning: your license will expire in 9 days
--------------------------------------------

Academic license - for non-commercial use only - expires 2022-03-24
Using license file /home/user/gurobi.lic
Set parameter LogFile to value gurobi.log

Gurobi 9.1.2 (linux64, gurobi_cl) logging started Tue Mar 15 11:55:19 2022


--------------------------------------------
Warning: your license will expire in 9 days
--------------------------------------------

Academic license - for non-commercial use only - expires 2022-03-24
Using license file /home/user/gurobi.lic
Set parameter LogFile to value gurobi.log

Gurobi 9.1.2 (linux64, gurobi_cl) logging started Tue Mar 15 11:55:23 2022


--------------------------------------------
Warning: your license will expire in 9 days
--------------------------------------------

Academic license - for non-commercial use only - expires 2022-03-24
Using license file /home/user/gurobi.lic
Set parameter LogFile to value gurobi.log

Gurobi 9.1.2 (linux64, gurobi_cl) logging started Tue Mar 15 11:55:30 2022


--------------------------------------------
Warning: your license will expire in 9 days
--------------------------------------------

Academic license - for non-commercial use only - expires 2022-03-24
Using license file /home/user/gurobi.lic
Set parameter LogFile to value gurobi.log

Gurobi 9.1.2 (linux64, gurobi_cl) logging started Tue Mar 15 12:16:23 2022


--------------------------------------------
Warning: your license will expire in 9 days
--------------------------------------------

Academic license - for non-commercial use only - expires 2022-03-24
Using license file /home/user/gurobi.lic
Set parameter LogFile to value gurobi.log

Gurobi 9.1.2 (linux64, gurobi_cl) logging started Tue Mar 15 12:17:51 2022


--------------------------------------------
Warning: your license will expire in 9 days
--------------------------------------------

Academic license - for non-commercial use only - expires 2022-03-24
Using license file /home/user/gurobi.lic
Set parameter LogFile to value gurobi.log

Gurobi 9.1.2 (linux64, gurobi_cl) logging started Tue Mar 15 12:21:55 2022


--------------------------------------------
Warning: your license will expire in 9 days
--------------------------------------------

Academic license - for non-commercial use only - expires 2022-03-24
Using license file /home/user/gurobi.lic
Set parameter LogFile to value gurobi.log

Gurobi 9.1.2 (linux64, gurobi_cl) logging started Tue Mar 15 12:22:30 2022


--------------------------------------------
Warning: your license will expire in 9 days
--------------------------------------------

Academic license - for non-commercial use only - expires 2022-03-24
Using license file /home/user/gurobi.lic
Set parameter LogFile to value gurobi.log

Gurobi 9.1.2 (linux64, gurobi_cl) logging started Tue Mar 15 12:22:36 2022


--------------------------------------------
Warning: your license will expire in 9 days
--------------------------------------------

Academic license - for non-commercial use only - expires 2022-03-24
Using license file /home/user/gurobi.lic
Set parameter LogFile to value gurobi.log

Gurobi 9.1.2 (linux64, gurobi_cl) logging started Tue Mar 15 12:22:59 2022


--------------------------------------------
Warning: your license will expire in 9 days
--------------------------------------------

Academic license - for non-commercial use only - expires 2022-03-24
Using license file /home/user/gurobi.lic
Set parameter LogFile to value gurobi.log

Gurobi 9.1.2 (linux64, gurobi_cl) logging started Tue Mar 15 12:23:41 2022


--------------------------------------------
Warning: your license will expire in 9 days
--------------------------------------------

Academic license - for non-commercial use only - expires 2022-03-24
Using license file /home/user/gurobi.lic
Set parameter LogFile to value gurobi.log

Gurobi 9.1.2 (linux64, gurobi_cl) logging started Tue Mar 15 12:24:17 2022


--------------------------------------------
Warning: your license will expire in 9 days
--------------------------------------------

Academic license - for non-commercial use only - expires 2022-03-24
Using license file /home/user/gurobi.lic
Set parameter LogFile to value gurobi.log

Gurobi 9.1.2 (linux64, gurobi_cl) logging started Tue Mar 15 12:25:59 2022


--------------------------------------------
Warning: your license will expire in 9 days
--------------------------------------------

Academic license - for non-commercial use only - expires 2022-03-24
Using license file /home/user/gurobi.lic
Set parameter LogFile to value gurobi.log

Gurobi 9.1.2 (linux64, gurobi_cl) logging started Tue Mar 15 12:26:17 2022


--------------------------------------------
Warning: your license will expire in 9 days
--------------------------------------------

Academic license - for non-commercial use only - expires 2022-03-24
Using license file /home/user/gurobi.lic
Set parameter LogFile to value gurobi.log

Gurobi 9.1.2 (linux64, gurobi_cl) logging started Tue Mar 15 12:28:38 2022


--------------------------------------------
Warning: your license will expire in 9 days
--------------------------------------------

Academic license - for non-commercial use only - expires 2022-03-24
Using license file /home/user/gurobi.lic
Set parameter LogFile to value gurobi.log

Gurobi 9.1.2 (linux64, gurobi_cl) logging started Tue Mar 15 12:29:28 2022


--------------------------------------------
Warning: your license will expire in 9 days
--------------------------------------------

Academic license - for non-commercial use only - expires 2022-03-24
Using license file /home/user/gurobi.lic
Set parameter LogFile to value gurobi.log

Gurobi 9.1.2 (linux64, gurobi_cl) logging started Tue Mar 15 12:30:11 2022


--------------------------------------------
Warning: your license will expire in 9 days
--------------------------------------------

Academic license - for non-commercial use only - expires 2022-03-24
Using license file /home/user/gurobi.lic
Set parameter LogFile to value gurobi.log

Gurobi 9.1.2 (linux64, gurobi_cl) logging started Tue Mar 15 12:31:55 2022


--------------------------------------------
Warning: your license will expire in 9 days
--------------------------------------------

Academic license - for non-commercial use only - expires 2022-03-24
Using license file /home/user/gurobi.lic
Set parameter LogFile to value gurobi.log

Gurobi 9.1.2 (linux64, gurobi_cl) logging started Tue Mar 15 12:32:16 2022


--------------------------------------------
Warning: your license will expire in 9 days
--------------------------------------------

Academic license - for non-commercial use only - expires 2022-03-24
Using license file /home/user/gurobi.lic
Set parameter LogFile to value gurobi.log

Gurobi 9.1.2 (linux64, gurobi_cl) logging started Tue Mar 15 12:33:38 2022


--------------------------------------------
Warning: your license will expire in 9 days
--------------------------------------------

Academic license - for non-commercial use only - expires 2022-03-24
Using license file /home/user/gurobi.lic
Set parameter LogFile to value gurobi.log

Gurobi 9.1.2 (linux64, gurobi_cl) logging started Tue Mar 15 12:34:16 2022


--------------------------------------------
Warning: your license will expire in 9 days
--------------------------------------------

Academic license - for non-commercial use only - expires 2022-03-24
Using license file /home/user/gurobi.lic
Set parameter LogFile to value gurobi.log

Gurobi 9.1.2 (linux64, gurobi_cl) logging started Tue Mar 15 12:34:21 2022


--------------------------------------------
Warning: your license will expire in 9 days
--------------------------------------------

Academic license - for non-commercial use only - expires 2022-03-24
Using license file /home/user/gurobi.lic
Set parameter LogFile to value gurobi.log

Gurobi 9.1.2 (linux64, gurobi_cl) logging started Tue Mar 15 12:34:26 2022


--------------------------------------------
Warning: your license will expire in 9 days
--------------------------------------------

Academic license - for non-commercial use only - expires 2022-03-24
Using license file /home/user/gurobi.lic
Set parameter LogFile to value gurobi.log

Gurobi 9.1.2 (linux64, gurobi_cl) logging started Tue Mar 15 12:36:16 2022


--------------------------------------------
Warning: your license will expire in 9 days
--------------------------------------------

Academic license - for non-commercial use only - expires 2022-03-24
Using license file /home/user/gurobi.lic
Set parameter LogFile to value gurobi.log

Gurobi 9.1.2 (linux64, gurobi_cl) logging started Tue Mar 15 12:36:43 2022


--------------------------------------------
Warning: your license will expire in 9 days
--------------------------------------------

Academic license - for non-commercial use only - expires 2022-03-24
Using license file /home/user/gurobi.lic
Set parameter LogFile to value gurobi.log

Gurobi 9.1.2 (linux64, gurobi_cl) logging started Tue Mar 15 12:37:32 2022


--------------------------------------------
Warning: your license will expire in 9 days
--------------------------------------------

Academic license - for non-commercial use only - expires 2022-03-24
Using license file /home/user/gurobi.lic
Set parameter LogFile to value gurobi.log

Gurobi 9.1.2 (linux64, gurobi_cl) logging started Tue Mar 15 12:38:54 2022


--------------------------------------------
Warning: your license will expire in 9 days
--------------------------------------------

Academic license - for non-commercial use only - expires 2022-03-24
Using license file /home/user/gurobi.lic
Set parameter LogFile to value gurobi.log

Gurobi 9.1.2 (linux64, gurobi_cl) logging started Tue Mar 15 12:39:36 2022


--------------------------------------------
Warning: your license will expire in 9 days
--------------------------------------------

Academic license - for non-commercial use only - expires 2022-03-24
Using license file /home/user/gurobi.lic
Set parameter LogFile to value gurobi.log

Gurobi 9.1.2 (linux64, gurobi_cl) logging started Tue Mar 15 13:32:00 2022


--------------------------------------------
Warning: your license will expire in 9 days
--------------------------------------------

Academic license - for non-commercial use only - expires 2022-03-24
Using license file /home/user/gurobi.lic
Set parameter LogFile to value gurobi.log

Gurobi 9.1.2 (linux64, gurobi_cl) logging started Tue Mar 15 16:58:11 2022


--------------------------------------------
Warning: your license will expire in 9 days
--------------------------------------------

Academic license - for non-commercial use only - expires 2022-03-24
Using license file /home/user/gurobi.lic
Set parameter LogFile to value gurobi.log

Gurobi 9.1.2 (linux64, gurobi_cl) logging started Tue Mar 15 16:58:17 2022


--------------------------------------------
Warning: your license will expire in 9 days
--------------------------------------------

Academic license - for non-commercial use only - expires 2022-03-24
Using license file /home/user/gurobi.lic
Set parameter LogFile to value gurobi.log

Gurobi 9.1.2 (linux64, gurobi_cl) logging started Tue Mar 15 16:58:51 2022


--------------------------------------------
Warning: your license will expire in 9 days
--------------------------------------------

Academic license - for non-commercial use only - expires 2022-03-24
Using license file /home/user/gurobi.lic
Set parameter LogFile to value gurobi.log

Gurobi 9.1.2 (linux64, gurobi_cl) logging started Thu Mar 17 10:39:22 2022


--------------------------------------------
Warning: your license will expire in 7 days
--------------------------------------------

Academic license - for non-commercial use only - expires 2022-03-24
Using license file /home/user/gurobi.lic
Set parameter LogFile to value gurobi.log

Gurobi 9.1.2 (linux64, gurobi_cl) logging started Thu Mar 17 10:40:16 2022


--------------------------------------------
Warning: your license will expire in 7 days
--------------------------------------------

Academic license - for non-commercial use only - expires 2022-03-24
Using license file /home/user/gurobi.lic
Set parameter LogFile to value gurobi.log

Gurobi 9.1.2 (linux64, gurobi_cl) logging started Thu Mar 17 10:41:14 2022


--------------------------------------------
Warning: your license will expire in 7 days
--------------------------------------------

Academic license - for non-commercial use only - expires 2022-03-24
Using license file /home/user/gurobi.lic
Set parameter LogFile to value gurobi.log

Gurobi 9.1.2 (linux64, gurobi_cl) logging started Thu Mar 17 10:42:58 2022


--------------------------------------------
Warning: your license will expire in 7 days
--------------------------------------------

Academic license - for non-commercial use only - expires 2022-03-24
Using license file /home/user/gurobi.lic
Set parameter LogFile to value gurobi.log

Gurobi 9.1.2 (linux64, gurobi_cl) logging started Tue Mar 29 13:14:16 2022


Gurobi 9.1.2 (linux64, gurobi_cl) logging started Tue Mar 29 13:23:30 2022

Academic license - for non-commercial use only - expires 2022-05-27
Using license file /home/user/gurobi.lic
Set parameter LogFile to value gurobi.log

Gurobi 9.1.2 (linux64, gurobi_cl) logging started Tue Mar 29 13:25:08 2022

Academic license - for non-commercial use only - expires 2022-05-27
Using license file /home/user/gurobi.lic
Set parameter LogFile to value gurobi.log

Gurobi 9.1.2 (linux64, gurobi_cl) logging started Tue Mar 29 13:26:16 2022

Academic license - for non-commercial use only - expires 2022-05-27
Using license file /home/user/gurobi.lic
Set parameter LogFile to value gurobi.log

Gurobi 9.1.2 (linux64, gurobi_cl) logging started Tue Mar 29 13:27:43 2022

Academic license - for non-commercial use only - expires 2022-05-27
Using license file /home/user/gurobi.lic
Set parameter LogFile to value gurobi.log

Gurobi 9.1.2 (linux64, gurobi_cl) logging started Tue Mar 29 13:27:43 2022

Academic license - for non-commercial use only - expires 2022-05-27
Using license file /home/user/gurobi.lic
Set parameter LogFile to value gurobi.log

Gurobi 9.1.2 (linux64, gurobi_cl) logging started Tue Mar 29 13:34:16 2022

Academic license - for non-commercial use only - expires 2022-05-27
Using license file /home/user/gurobi.lic
Set parameter LogFile to value gurobi.log

Gurobi 9.1.2 (linux64, gurobi_cl) logging started Tue Mar 29 13:36:24 2022

Academic license - for non-commercial use only - expires 2022-05-27
Using license file /home/user/gurobi.lic
Set parameter LogFile to value gurobi.log

Gurobi 9.1.2 (linux64, gurobi_cl) logging started Tue Mar 29 13:37:43 2022

Academic license - for non-commercial use only - expires 2022-05-27
Using license file /home/user/gurobi.lic
Set parameter LogFile to value gurobi.log

Gurobi 9.1.2 (linux64, gurobi_cl) logging started Tue Mar 29 14:25:36 2022

Academic license - for non-commercial use only - expires 2022-05-27
Using license file /home/user/gurobi.lic
Set parameter LogFile to value gurobi.log

Gurobi 9.1.2 (linux64, gurobi_cl) logging started Tue Mar 29 14:29:23 2022

Academic license - for non-commercial use only - expires 2022-05-27
Using license file /home/user/gurobi.lic
Set parameter LogFile to value gurobi.log

Gurobi 9.1.2 (linux64, gurobi_cl) logging started Tue Mar 29 14:29:46 2022

Academic license - for non-commercial use only - expires 2022-05-27
Using license file /home/user/gurobi.lic
Set parameter LogFile to value gurobi.log

Gurobi 9.1.2 (linux64, gurobi_cl) logging started Tue Mar 29 14:31:35 2022

Academic license - for non-commercial use only - expires 2022-05-27
Using license file /home/user/gurobi.lic
Set parameter LogFile to value gurobi.log
